study/exp-portion-fine-grain-4v100/run-logs-backup-12-06/samgraph_cache_graphsage_kKHop2_papers100M-undir_coll_cache_asymm_link_2_cache_rate_006_batch_size_8000_concurrent_impl_MPS.log
config:eval_tsp="2022-12-06 14:00:38"
config:arch=arch5
config:num_train_worker=3
config:num_sample_worker=1
config:sample_type=khop2
config:root_path=/nvme/graph-learning-copy/samgraph/
config:dataset=papers100M-undir
config:pipeline=False
config:cache_policy=coll_cache_asymm_link
config:cache_percentage=0.06
config:num_epoch=4
config:batch_size=8000
config:num_hidden=256
config:max_sampling_jobs=1
config:max_copying_jobs=1
config:barriered_epoch=1
config:presample_epoch=2
config:omp_thread_num=13
config:unsupervised=False
config:amp=True
config:rolling=0
config:fanout=[25, 10]
config:lr=0.003
config:dropout=0.5
config:single_gpu=False
config:max_num_step=100000
config:validate_configs=False
config:report_acc=0
config:dataset_path=/nvme/graph-learning-copy/samgraph/papers100M-undir
config:torch_thread_num=13
config:train_workers=['cuda:0', 'cuda:1', 'cuda:2']
config:sample_workers=['cuda:3']
config:num_fanout=2
config:num_layer=2
config:_run_mode=RunMode.FGNN
config:_log_level=warn
config:_profile_level=3
config:_empty_feat=0
config:_arch=5
config:_sample_type=5
config:_cache_policy=13
test_result:init:input_scale_factor=1.1
0 :  {link #0 : 1}, {link #1 : 2},
1 :  {link #0 : 2}, {link #1 : 0},
2 :  {link #0 : 0}, {link #1 : 1},
0 :  {link #0 : 1}, {link #1 : 2},
1 :  {link #0 : 2}, {link #1 : 0},
2 :  {link #0 : 0}, {link #1 : 1},
0 :  {link #0 : 1}, {link #1 : 2},
1 :  {link #0 : 2}, {link #1 : 0},
2 :  {link #0 : 0}, {link #1 : 1},
Set parameter WLSAccessID
Set parameter WLSSecret
Set parameter LicenseID
Set parameter TimeLimit to value 200
Set parameter MIPGap to value 0.05
Set parameter GomoryPasses to value 0
Set parameter Aggregate to value 0
Set parameter LogFile to value "cppsolver.log"
Set parameter Threads to value 26
Academic license - for non-commercial use only - registered to xiaoniu.sxn@sjtu.edu.cn
Gurobi Optimizer version 9.5.1 build v9.5.1rc2 (linux64)
Thread count: 40 physical cores, 80 logical processors, using up to 26 threads
Academic license - for non-commercial use only - registered to xiaoniu.sxn@sjtu.edu.cn
Optimize a model with 21372 rows, 10174 columns and 64086 nonzeros
Model fingerprint: 0x6d048762
Variable types: 4 continuous, 10170 integer (10170 binary)
Coefficient statistics:
  Matrix range     [2e-04, 4e+02]
  Objective range  [1e+00, 1e+00]
  Bounds range     [1e+00, 1e+00]
  RHS range        [1e+00, 2e+02]
Found heuristic solution: objective 2.000000e+09
Presolve removed 12206 rows and 0 columns
Presolve time: 0.09s
Presolved: 9166 rows, 10174 columns, 37642 nonzeros
Found heuristic solution: objective 8597.1207557
Variable types: 4 continuous, 10170 integer (10170 binary)

Root relaxation: objective 4.594046e+02, 7921 iterations, 0.16 seconds (0.14 work units)

    Nodes    |    Current Node    |     Objective Bounds      |     Work
 Expl Unexpl |  Obj  Depth IntInf | Incumbent    BestBd   Gap | It/Node Time

     0     0  459.40457    0   24 8597.12076  459.40457  94.7%     -    0s
H    0     0                     755.2244173  459.40457  39.2%     -    0s
H    0     0                     461.7613151  459.40457  0.51%     -    1s

Explored 1 nodes (12773 simplex iterations) in 1.22 seconds (0.79 work units)
Thread count was 26 (of 80 available processors)

Solution count 4: 461.761 755.224 8597.12 2e+09 

Optimal solution found (tolerance 5.00e-02)
Best objective 4.617613151350e+02, best bound 4.594045711236e+02, gap 0.5104%
coll_cache:optimal_local_rate=0.802648,0.801403,0.801113,
coll_cache:optimal_remote_rate=0.166141,0.167387,0.167676,
coll_cache:optimal_cpu_rate=0.0312105,0.0312105,0.0312105,
z=461.761
test_result:init:feat_nbytes=56862697472
test_result:init:cache_nbytes=3412243968
test_result:init:feat_nbytes=56862697472
test_result:init:cache_nbytes=3414750720
test_result:init:feat_nbytes=56862697472
test_result:init:cache_nbytes=3405658112
0 :  {link #0 : 1}, {link #1 : 2},
1 :  {link #0 : 2}, {link #1 : 0},
2 :  {link #0 : 0}, {link #1 : 1},
0 :  {link #0 : 1}, {link #1 : 2},
1 :  {link #0 : 2}, {link #1 : 0},
2 :  {link #0 : 0}, {link #1 : 1},
0 :  {link #0 : 1}, {link #1 : 2},
1 :  {link #0 : 2}, {link #1 : 0},
2 :  {link #0 : 0}, {link #1 : 1},
Set parameter WLSAccessID
Set parameter WLSSecret
Set parameter LicenseID
Set parameter TimeLimit to value 200
Set parameter MIPGap to value 0.05
Set parameter GomoryPasses to value 0
Set parameter Aggregate to value 0
Set parameter LogFile to value "cppsolver.log"
Set parameter Threads to value 26
Academic license - for non-commercial use only - registered to xiaoniu.sxn@sjtu.edu.cn
Gurobi Optimizer version 9.5.1 build v9.5.1rc2 (linux64)
Thread count: 40 physical cores, 80 logical processors, using up to 26 threads
Academic license - for non-commercial use only - registered to xiaoniu.sxn@sjtu.edu.cn
Optimize a model with 21372 rows, 10174 columns and 64086 nonzeros
Model fingerprint: 0x31c20bf0
Variable types: 4 continuous, 10170 integer (10170 binary)
Coefficient statistics:
  Matrix range     [2e-04, 4e+02]
  Objective range  [1e+00, 1e+00]
  Bounds range     [1e+00, 1e+00]
  RHS range        [1e+00, 2e+02]
Found heuristic solution: objective 2.000000e+09
Presolve removed 12206 rows and 0 columns
Presolve time: 0.09s
Presolved: 9166 rows, 10174 columns, 37642 nonzeros
Found heuristic solution: objective 7569.0798541
Variable types: 4 continuous, 10170 integer (10170 binary)

Root relaxation: objective 4.594046e+02, 7978 iterations, 0.18 seconds (0.14 work units)

    Nodes    |    Current Node    |     Objective Bounds      |     Work
 Expl Unexpl |  Obj  Depth IntInf | Incumbent    BestBd   Gap | It/Node Time

     0     0  459.40457    0   27 7569.07985  459.40457  93.9%     -    0s
H    0     0                     461.7613151  459.40457  0.51%     -    0s

Explored 1 nodes (15223 simplex iterations) in 0.61 seconds (0.46 work units)
Thread count was 26 (of 80 available processors)

Solution count 3: 461.761 7569.08 2e+09 

Optimal solution found (tolerance 5.00e-02)
Best objective 4.617613151350e+02, best bound 4.594045723566e+02, gap 0.5104%
coll_cache:optimal_local_rate=0.803372,0.799578,0.803,
coll_cache:optimal_remote_rate=0.165418,0.169211,0.165789,
coll_cache:optimal_cpu_rate=0.0312105,0.0312105,0.0312105,
z=461.761
test_result:init:cache_nbytes=0
test_result:init:cache_nbytes=0
test_result:init:cache_nbytes=0
[Train  Worker 1/3] Started with PID 988583(Tesla V100-SXM2-16GB)
[Train  Worker 1] run train for 4 epochs with 153 steps
[Train  Worker 1] Avg Epoch Time 0.7172 | Train Total Time(Profiler) 0.4336 | Copy Time 0.2787
[Train  Worker 2/3] Started with PID 988584(Tesla V100-SXM2-16GB)
[Train  Worker 2] run train for 4 epochs with 153 steps
[Train  Worker 2] Avg Epoch Time 0.7171 | Train Total Time(Profiler) 0.4334 | Copy Time 0.2790
[Train  Worker 0/3] Started with PID 988581(Tesla V100-SXM2-16GB)
[Train  Worker 0] run train for 4 epochs with 153 steps
Epoch 00000 | Epoch Time 1.8517 | Total Train Time(Profiler) 1.5469 | Copy Time 0.2985
Epoch 00001 | Epoch Time 0.7174 | Total Train Time(Profiler) 0.4338 | Copy Time 0.2783
Epoch 00002 | Epoch Time 0.7129 | Total Train Time(Profiler) 0.4287 | Copy Time 0.2790
Epoch 00003 | Epoch Time 0.7210 | Total Train Time(Profiler) 0.4361 | Copy Time 0.2799
[Train  Worker 0] Avg Epoch Time 0.7171 | Train Total Time(Profiler) 0.4329 | Copy Time 0.2791
    [Step(average) Profiler Level 1 E3 S152]
        L1  sample           0.005646 | send           0.001404
        L1  recv             0.000000 | copy           0.000000 | convert time 0.000000 | train  0.000000
        L1  feature nbytes 0.00 Bytes | label nbytes 0.00 Bytes
        L1  id nbytes      0.00 Bytes | graph nbytes 0.00 Bytes
        L1  miss nbytes    0.00 Bytes | remote nbytes 0.00 Bytes
        L1  num nodes         1100923 | num samples     1712973
    [Step(average) Profiler Level 2 E3 S152]
        L2  shuffle     0.000286 | core sample  0.002072 | id remap        0.003182
        L2  graph copy  0.000000 | id copy      0.000000 | cache feat copy 0.000000
        L2  last layer sample time 0.000324 | size 72448.764706
    [Step(average) Profiler Level 3 E3 S152]
        L3  khop sample coo  0.001746 | khop sort coo      0.000000 | khop count edge     0.000039 | khop compact edge 0.000248
        L3  walk sample coo  0.000000 | walk topk total    0.000000 | walk topk step1     0.000000 | walk topk step2   0.000000
        L3  walk topk step3  0.000000 | walk topk step4    0.000000 | walk topk step5     0.000000
        L3  walk topk step6  0.000000 | walk topk step7    0.000000
        L3  remap unique     0.000000 | remap populate     0.002647 | remap mapnode       0.000000 | remap mapedge     0.000535
        L3  cache get_index  0.000000 | cache copy_index   0.000000 | cache extract_miss  0.000000
        L3  cache copy_miss  0.000000 | cache combine_miss 0.000000 | cache combine cache 0.000000 | cache combine remote 0.000000
        L3  label extract  0.000000
    [Init Profiler Level 1]
        L1  init     5.0853 | sampler init    19.7872 | trainer init 0.0000
    [Init Profiler Level 2]
        L2  load ds         7.9466 | init queue          11.2198
        L2  presample       3.9561 | build interal ds     1.7476
        L2  build cache     0.0000
    [Init Profiler Level 3]
        L3  load dataset: mmap     5.0815 | copy         2.8651
        L3  dist queue: alloc      0.0017 | pin         11.2182 | push     0.0000
        L3  presample: init        0.2958
        L3  presample: sample      1.7046 | copy         0.1069
        L3  presample: count       1.1765 | sort         0.3034
        L3  presample: reset       0.0019 | get rank     0.0263
        L3  internal: cuda ctx     1.5139 | cuda stream     0.2293
[Sample Worker 0/1] Started with PID 988580(Tesla V100-SXM2-16GB)
[Sample Worker 0] run sample for 4 epochs with 153 steps
[Sample Worker 0] Avg Sample Total Time 1.0802 | Sampler Total Time(Profiler) 1.0786
test_result:sample_time=0.8639
test_result:get_cache_miss_index_time=0.0000
test_result:enqueue_samples_time=0.2147
test_result:epoch_time:sample_total=1.0802
[CUDA] cuda0: usage: 9.20 GB
[SAM] cuda0 data alloc        : 0.00 Bytes
[SAM] cuda0 workspace         : 1.23 GB
[SAM] cuda0 workspace reserve : 621.37 MB
[SAM] cuda0 total             : 1.23 GB
    [Step(average) Profiler Level 1 E3 S152]
        L1  sample           0.000000 | send           0.000000
        L1  recv             0.001558 | copy           0.005469 | convert time 0.000393 | train  0.008103
        L1  feature nbytes  537.56 MB | label nbytes   62.50 KB
        L1  id nbytes      0.00 Bytes | graph nbytes 0.00 Bytes
        L1  miss nbytes      23.09 MB | remote nbytes   86.63 MB
        L1  num nodes               0 | num samples           0
    [Step(average) Profiler Level 2 E3 S152]
        L2  shuffle     0.000000 | core sample  0.000000 | id remap        0.000000
        L2  graph copy  0.000003 | id copy      0.000000 | cache feat copy 0.003908
        L2  last layer sample time 0.000000 | size 0.000000
    [Step(average) Profiler Level 3 E3 S152]
        L3  khop sample coo  0.000000 | khop sort coo      0.000000 | khop count edge     0.000000 | khop compact edge 0.000000
        L3  walk sample coo  0.000000 | walk topk total    0.000000 | walk topk step1     0.000000 | walk topk step2   0.000000
        L3  walk topk step3  0.000000 | walk topk step4    0.000000 | walk topk step5     0.000000
        L3  walk topk step6  0.000000 | walk topk step7    0.000000
        L3  remap unique     0.000000 | remap populate     0.000000 | remap mapnode       0.000000 | remap mapedge     0.000000
        L3  cache get_index  0.000706 | cache copy_index   0.000000 | cache extract_miss  0.000000
        L3  cache copy_miss  0.000000 | cache combine_miss 0.003009 | cache combine cache 0.001329 | cache combine remote 0.001144
        L3  label extract  0.000174
    [Init Profiler Level 1]
        L1  init     5.0853 | sampler init     0.0000 | trainer init 68.4642
    [Init Profiler Level 2]
        L2  load ds         5.0815 | init queue          11.1910
        L2  presample       0.0000 | build interal ds     1.4528
        L2  build cache    55.8172
    [Init Profiler Level 3]
        L3  load dataset: mmap     5.0815 | copy         0.0000
        L3  dist queue: alloc      0.0017 | pin         11.1894 | push     0.0000
        L3  presample: init        0.0000
        L3  presample: sample      0.0000 | copy         0.0000
        L3  presample: count       0.0000 | sort         0.0000
        L3  presample: reset       0.0000 | get rank     0.0000
        L3  internal: cuda ctx     1.4527 | cuda stream     0.0001
|===========================================================================|
|                  PyTorch CUDA memory summary, device ID 0                 |
|---------------------------------------------------------------------------|
|            CUDA OOMs: 0            |        cudaMalloc retries: 0         |
|===========================================================================|
|        Metric         | Cur Usage  | Peak Usage | Tot Alloc  | Tot Freed  |
|---------------------------------------------------------------------------|
| Allocated memory      |   22837 KB |  402604 KB |  284851 MB |  284829 MB |
|       from large pool |   18165 KB |  399222 KB |  282739 MB |  282721 MB |
|       from small pool |    4672 KB |    7148 KB |    2112 MB |    2108 MB |
|---------------------------------------------------------------------------|
| Active memory         |   22837 KB |  402604 KB |  284851 MB |  284829 MB |
|       from large pool |   18165 KB |  399222 KB |  282739 MB |  282721 MB |
|       from small pool |    4672 KB |    7148 KB |    2112 MB |    2108 MB |
|---------------------------------------------------------------------------|
| GPU reserved memory   |  581632 KB |  581632 KB |  581632 KB |       0 B  |
|       from large pool |  571392 KB |  571392 KB |  571392 KB |       0 B  |
|       from small pool |   10240 KB |   10240 KB |   10240 KB |       0 B  |
|---------------------------------------------------------------------------|
| Non-releasable memory |   24266 KB |  370787 KB |  332463 MB |  332440 MB |
|       from large pool |   22795 KB |  368969 KB |  330049 MB |  330026 MB |
|       from small pool |    1471 KB |    3606 KB |    2414 MB |    2413 MB |
|---------------------------------------------------------------------------|
| Allocations           |      38    |      51    |   22680    |   22642    |
|       from large pool |       3    |      14    |    8976    |    8973    |
|       from small pool |      35    |      39    |   13704    |   13669    |
|---------------------------------------------------------------------------|
| Active allocs         |      39    |      51    |   22680    |   22641    |
|       from large pool |       3    |      14    |    8976    |    8973    |
|       from small pool |      36    |      39    |   13704    |   13668    |
|---------------------------------------------------------------------------|
| GPU reserved segments |      14    |      14    |      14    |       0    |
|       from large pool |       9    |       9    |       9    |       0    |
|       from small pool |       5    |       5    |       5    |       0    |
|---------------------------------------------------------------------------|
| Non-releasable allocs |      12    |      25    |   10514    |   10502    |
|       from large pool |       4    |      12    |    5181    |    5177    |
|       from small pool |       8    |      16    |    5333    |    5325    |
|---------------------------------------------------------------------------|
| Oversize allocations  |       0    |       0    |       0    |       0    |
|---------------------------------------------------------------------------|
| Oversize GPU segments |       0    |       0    |       0    |       0    |
|===========================================================================|

test_result:epoch_time:copy_time=0.2791
test_result:convert_time=0.0200
test_result:train_time=0.4129
test_result:epoch_time:train_total=0.4329
test_result:cache_percentage=0.0600
test_result:cache_hit_rate=1.0000
test_result:run_time=8.3410
